100
100
882 25
997 5
932 17
864 9
296 20
625 7
732 22
353 24
65 13
656 9
653 17
414 8
884 3
796 2
992 4
298 23
531 19
952 14
561 17
347 8
61 23
441 20
419 18
318 10
933 23
618 10
939 8
70 25
461 17
926 4
796 23
676 1
869 4
491 6
146 14
340 8
511 5
702 5
924 19
764 6
343 9
793 9
468 12
808 3
78 10
731 25
307 8
902 2
737 17
659 9
580 23
791 16
129 18
372 3
863 12
260 8
572 4
191 15
265 25
319 20
434 25
919 17
159 23
971 22
564 4
480 19
979 21
586 9
115 7
863 4
795 23
886 17
526 3
406 18
129 24
189 12
125 9
6 9
631 3
530 20
956 12
690 11
984 25
745 25
583 7
778 2
81 16
743 9
795 23
453 24
224 16
837 23
99 19
983 7
521 15
628 2
226 17
114 9
943 8
658 25
